n_res = 4;
rcap = [13, 14, 107, 121];
rtype = [1, 1, 2, 2];
n_tasks = 30;
modes = [ {1, 2, 3}, {4, 5, 6}, {7, 8, 9}, {10, 11, 12}, {13, 14, 15}, {16, 17, 18}, {19, 20, 21}, {22, 23, 24}, {25, 26, 27}, {28, 29, 30}, {31, 32, 33}, {34, 35, 36}, {37, 38, 39}, {40, 41, 42}, {43, 44, 45}, {46, 47, 48}, {49, 50, 51}, {52, 53, 54}, {55, 56, 57}, {58, 59, 60}, {61, 62, 63}, {64, 65, 66}, {67, 68, 69}, {70, 71, 72}, {73, 74, 75}, {76, 77, 78}, {79, 80, 81}, {82, 83, 84}, {85, 86, 87}, {88, 89, 90} ];
succ = [ {7, 10}, {13, 14, 18}, {4, 5, 6}, {11, 21}, {7, 8, 21}, {9, 10, 22}, {11, 22}, {17}, {15}, {24}, {12, 16, 25}, {15, 18}, {15}, {16, 17, 25}, {17, 19}, {20, 23, 30}, {24}, {19}, {20, 27, 30}, {24}, {26}, {27}, {26, 28}, {29}, {26, 28, 30}, {29}, {28, 29}, {}, {}, {} ];
n_opt = 90;
dur = [1, 6, 6, 2, 7, 9, 8, 9, 10, 2, 4, 10, 2, 3, 4, 5, 6, 7, 4, 4, 10, 1, 4, 7, 5, 8, 8, 1, 1, 8, 4, 8, 10, 1, 4, 7, 1, 9, 10, 1, 1, 6, 2, 2, 5, 2, 3, 7, 1, 3, 6, 6, 6, 8, 1, 3, 7, 2, 4, 7, 4, 5, 7, 6, 8, 9, 3, 4, 6, 1, 1, 6, 2, 9, 10, 5, 6, 8, 2, 7, 9, 2, 3, 4, 3, 4, 7, 1, 2, 4];
rreq = [|  0,  9,  9,  0,  0,  0,  0,  7,  6,  0,  0,  6,  0,  0,  6, 10,  7,  0,  0,  3,  0, 10,  0,  4, 10,  0,  0,  4,  0,  0,  0,  3,  0,  6,  0,  0,  4,  0,  0,  0,  0,  8,  0,  4,  0,  4,  3,  3,  6,  0,  0,  8,  0,  7,  4,  4,  0,  7,  0,  5,  0,  0,  0,  9,  9,  8,  4,  3,  1,  0,  0,  3,  0,  1,  0,  0,  1,  0,  0,  0,  0,  0,  0,  0, 10,  0,  0,  5,  0,  0
        |  7,  0,  0,  4,  3,  3,  6,  0,  0,  6,  2,  0,  6,  5,  0,  0,  0, 10,  5,  0,  4,  0,  1,  0,  0,  4,  4,  0,  7,  7,  7,  0,  7,  0,  7,  6,  0,  4,  3,  4,  5,  0,  8,  0, 10,  0,  0,  0,  0, 10,  8,  0,  7,  0,  0,  0,  8,  0,  5,  0,  8,  7,  6,  0,  0,  0,  0,  0,  0,  3,  2,  0,  8,  0,  7,  9,  0,  7, 10,  9,  6,  9,  9,  9,  0,  7,  5,  0,  9,  5
        |  5,  0,  4,  1,  0,  0,  0,  0,  7,  8,  0,  0,  0,  0,  0,  0,  1,  1,  0,  4,  4,  0,  8,  0,  0,  0,  8,  0,  0,  5,  0,  3,  3,  0,  4,  0,  0,  0,  0,  0,  2,  0,  4,  0,  0,  0,  8,  7,  5,  5,  4,  2,  2,  1,  9,  0,  0,  1,  1,  0,  7,  4,  0,  9,  0,  8,  0,  0,  0,  0,  7,  0,  0,  0,  3,  0,  4,  3,  6,  3,  3,  0,  5,  0,  0,  6,  3,  0,  0,  8
        |  0,  3,  0,  0,  8,  5,  8,  5,  0,  0,  6,  5,  8,  7,  7,  3,  0,  0,  4,  0,  0,  5,  0,  4,  8,  7,  0,  9,  6,  0,  4,  0,  0,  8,  0,  7,  5,  4,  4,  9,  0,  7,  0,  3,  1,  7,  0,  0,  0,  0,  0,  0,  0,  0,  0,  6,  4,  0,  0,  2,  0,  0,  4,  0,  7,  0, 10,  7,  6,  4,  0,  5,  7,  7,  0,  4,  0,  0,  0,  0,  0,  9,  0,  5,  2,  0,  0,  2,  2,  0 |];
